# Solution for model GasLib-40
# Objective value = 1.0531704071419572e+01
loadshed[innode_1] 0
loadshed[innode_2] 0
loadshed[innode_3] 0
loadshed[innode_4] 0
loadshed[innode_5] 0
loadshed[innode_6] 0
loadshed[innode_7] 0
loadshed[innode_8] 0
loadshed[source_1] -2.7033675163873605e-01
loadshed[source_2] 7.4227167092031809e-02
loadshed[source_3] 2.6272787518061169e-01
loadshed[sink_1] 0
loadshed[sink_2] 0
loadshed[sink_3] 0
loadshed[sink_4] 0
loadshed[sink_5] 0
loadshed[sink_6] 0
loadshed[sink_7] 0
loadshed[sink_8] 0
loadshed[sink_9] 0
loadshed[sink_10] 0
loadshed[sink_11] 0
loadshed[sink_12] 6.4397680946259794e-01
loadshed[sink_13] 0
loadshed[sink_14] 0
loadshed[sink_15] 0
loadshed[sink_16] 0
loadshed[sink_17] 0
loadshed[sink_18] 0
loadshed[sink_19] 0
loadshed[sink_20] 0
loadshed[sink_21] 0
loadshed[sink_22] 0
loadshed[sink_23] 0
loadshed[sink_24] 0
loadshed[sink_25] 0
loadshed[sink_26] 0
loadshed[sink_27] 0
loadshed[sink_28] 0
loadshed[sink_29] 0
flow[source_1,sink_3] 2.0082788993788768e+02
flow[innode_1,sink_16] 1.6354166666666970e+01
flow[innode_6,sink_13] -2.0763883438426305e+00
flow[sink_13,sink_14] -18.4305550105093
flow[sink_14,sink_10] -3.4784721677175966e+01
flow[sink_25,sink_26] 1.7373983595469147e+02
flow[sink_26,sink_9] 1.2282449748157126e+02
flow[sink_9,sink_18] 1.0647033081490459e+02
flow[sink_26,sink_4] 3.4561171806453558e+01
flow[sink_4,sink_20] -2.8332626640555986e+01
flow[sink_18,sink_6] 9.0116164148237914e+01
flow[sink_25,innode_8] -1.6811955660455132e+02
flow[sink_6,sink_7] 4.1053664148237658e+01
flow[sink_6,sink_22] 3.2708333333333641e+01
flow[sink_7,sink_24] 3.8530795928580432e+01
flow[sink_22,sink_1] 1.6354166666666970e+01
flow[sink_24,sink_21] 2.2176629261913764e+01
flow[sink_21,sink_12] 5.8224625952470959e+00
flow[sink_7,sink_5] -1.3831298447009232e+01
flow[sink_5,sink_17] -3.0185465113675832e+01
flow[sink_17,sink_4] -46.5396317803425
flow[sink_17,sink_8] 0
flow[sink_3,sink_23] 16.3541666666697
flow[sink_8,sink_20] -1.6354166666668334e+01
flow[sink_25,sink_20] 6.1040959973890921e+01
flow[sink_25,sink_15] -8.0939017646855362e+01
flow[sink_15,sink_29] -9.7293184313522033e+01
flow[sink_29,sink_28] 1.6354166666667879e+01
flow[sink_29,sink_2] 1.6354166666684250e+01
flow[sink_2,sink_15] 0
flow[sink_29,innode_7] -1.4635568431354093e+02
flow[innode_4,sink_19] 0
flow[sink_19,innode_3] 4.0917090259531726e+01
flow[innode_4,innode_5] 1.1655555501050955e+02
flow[sink_27,innode_5] -1.1655555501050955e+02
flow[sink_27,sink_19] 1.0020138834384288e+02
flow[sink_10,sink_11] 3.2708333333333641e+01
flow[sink_10,innode_2] -4.2930131417644546e+01
flow[sink_10,innode_3] -4.0917090259531726e+01
flow[innode_6,sink_25] 2.0763883438426305e+00
flow[sink_11,innode_1] 1.6354166666666970e+01
flow[sink_19,innode_2] 4.2930131417644546e+01
flow[source_3,innode_4] 1.1655555501050955e+02
flow[source_2,innode_7] 1.4635568431354093e+02
flow[sink_3,innode_8] 1.6811955660455132e+02
pressure[innode_1] 7.5393784340602949e+01
pressure[innode_2] 7.7814520400878791e+01
pressure[innode_3] 77.7239141378569
pressure[innode_4] 81.01325
pressure[innode_5] 8.0933076943270322e+01
pressure[innode_6] 7.3855787325633514e+01
pressure[innode_7] 81.01325
pressure[innode_8] 8.0341959082972352e+01
pressure[source_1] 81.01325
pressure[source_2] 81.01325
pressure[source_3] 81.01325
pressure[sink_1] 4.5908168126246871e+01
pressure[sink_2] 76.6845392938837
pressure[sink_3] 8.0341959082972352e+01
pressure[sink_4] 5.7225195879313738e+01
pressure[sink_5] 5.3198005648200983e+01
pressure[sink_6] 4.8009245736634242e+01
pressure[sink_7] 4.7445676785003464e+01
pressure[sink_8] 5.8164153685600525e+01
pressure[sink_9] 54.2680295355182
pressure[sink_10] 75.5454856482065
pressure[sink_11] 7.5393784340602949e+01
pressure[sink_12] 1.0132500000000002e+00
pressure[sink_13] 73.8672341075764
pressure[sink_14] 7.3900217155703857e+01
pressure[sink_15] 7.4248420429966828e+01
pressure[sink_16] 7.4372134505785269e+01
pressure[sink_17] 5.5446604612361185e+01
pressure[sink_18] 5.0415615630473418e+01
pressure[sink_19] 7.7814520400878791e+01
pressure[sink_20] 5.9303809109188812e+01
pressure[sink_21] 3.0852008560080226e+00
pressure[sink_22] 4.6971937268601877e+01
pressure[sink_23] 8.0177241071312565e+01
pressure[sink_24] 3.3307864205377871e+00
pressure[sink_25] 7.3855787325633514e+01
pressure[sink_26] 6.1619392711092004e+01
pressure[sink_27] 7.9965881208191135e+01
pressure[sink_28] 7.6803526518730180e+01
pressure[sink_29] 7.7098808792347356e+01
interdiction[source_1,sink_3] 0
interdiction[innode_1,sink_16] 0
interdiction[innode_6,sink_13] 0
interdiction[sink_13,sink_14] 0
interdiction[sink_14,sink_10] 0
interdiction[sink_25,sink_26] 0
interdiction[sink_26,sink_9] 0
interdiction[sink_9,sink_18] 0
interdiction[sink_26,sink_4] 0
interdiction[sink_4,sink_20] 0
interdiction[sink_18,sink_6] 0
interdiction[sink_25,innode_8] 0
interdiction[sink_6,sink_7] 0
interdiction[sink_6,sink_22] 0
interdiction[sink_7,sink_24] 0
interdiction[sink_22,sink_1] 0
interdiction[sink_24,sink_21] 0
interdiction[sink_21,sink_12] 0
interdiction[sink_7,sink_5] 0
interdiction[sink_5,sink_17] 0
interdiction[sink_17,sink_4] 0
interdiction[sink_17,sink_8] 1
interdiction[sink_3,sink_23] 0
interdiction[sink_8,sink_20] 0
interdiction[sink_25,sink_20] 0
interdiction[sink_25,sink_15] 0
interdiction[sink_15,sink_29] 0
interdiction[sink_29,sink_28] 0
interdiction[sink_29,sink_2] 0
interdiction[sink_2,sink_15] 1
interdiction[sink_29,innode_7] 0
interdiction[innode_4,sink_19] 1
interdiction[sink_19,innode_3] 0
interdiction[innode_4,innode_5] 0
interdiction[sink_27,innode_5] 0
interdiction[sink_27,sink_19] 0
interdiction[sink_10,sink_11] 0
interdiction[sink_10,innode_2] 0
interdiction[sink_10,innode_3] 0
interdiction[innode_6,sink_25] 0
interdiction[sink_11,innode_1] 0
interdiction[sink_19,innode_2] 0
interdiction[source_3,innode_4] 0
interdiction[source_2,innode_7] 0
interdiction[sink_3,innode_8] 0
WCcheckFlow[source_1,sink_3] 39
WCcheckFlow[innode_1,sink_16] 1
WCcheckFlow[innode_6,sink_13] 13
WCcheckFlow[sink_13,sink_14] 12
WCcheckFlow[sink_14,sink_10] 11
WCcheckFlow[sink_25,sink_26] 15
WCcheckFlow[sink_26,sink_9] 11
WCcheckFlow[sink_9,sink_18] 10
WCcheckFlow[sink_26,sink_4] 3
WCcheckFlow[sink_4,sink_20] 2
WCcheckFlow[sink_18,sink_6] 9
WCcheckFlow[sink_25,innode_8] -36
WCcheckFlow[sink_6,sink_7] 6
WCcheckFlow[sink_6,sink_22] 2
WCcheckFlow[sink_7,sink_24] 3
WCcheckFlow[sink_22,sink_1] 1
WCcheckFlow[sink_24,sink_21] 2
WCcheckFlow[sink_21,sink_12] 1
WCcheckFlow[sink_7,sink_5] 2
WCcheckFlow[sink_5,sink_17] 1
WCcheckFlow[sink_17,sink_4] 0
WCcheckFlow[sink_17,sink_8] 0
WCcheckFlow[sink_3,sink_23] 1
WCcheckFlow[sink_8,sink_20] -1
WCcheckFlow[sink_25,sink_20] 0
WCcheckFlow[sink_25,sink_15] 6
WCcheckFlow[sink_15,sink_29] 5
WCcheckFlow[sink_29,sink_28] 1
WCcheckFlow[sink_29,sink_2] 1
WCcheckFlow[sink_2,sink_15] 0
WCcheckFlow[sink_29,innode_7] 2
WCcheckFlow[innode_4,sink_19] 0
WCcheckFlow[sink_19,innode_3] -5
WCcheckFlow[innode_4,innode_5] -2
WCcheckFlow[sink_27,innode_5] 3
WCcheckFlow[sink_27,sink_19] -4
WCcheckFlow[sink_10,sink_11] 3
WCcheckFlow[sink_10,innode_2] 1
WCcheckFlow[sink_10,innode_3] 6
WCcheckFlow[innode_6,sink_25] -14
WCcheckFlow[sink_11,innode_1] 2
WCcheckFlow[sink_19,innode_2] 0
WCcheckFlow[source_3,innode_4] -1
WCcheckFlow[source_2,innode_7] -1
WCcheckFlow[sink_3,innode_8] 37
